JulietBench/Juliet_Based_Patch_Bench/qemu/CWE-369-Divide-By-Zero/CVE_2016_8669_3592fe0c919cf27a81d8e9f9b4f269553418bb01/Resultserial_update_parameters_Snippet_patch1NEQ.smt2
; benchmark generated from python API
(set-info :status unknown)
(declare-fun R () (_ BitVec 32))
(declare-fun rdi () (_ BitVec 64))
(declare-fun rsi () (_ BitVec 64))
(assert
 (let (($x302 (= (_ bv0 32) R)))
 (let ((?x12 ((_ extract 15 0) rdi)))
 (let (($x17 (= (_ bv0 16) ?x12)))
 (let (($x303 (and $x17 $x302)))
 (let (($x43 (and (distinct (_ bv0 16) ?x12) true)))
 (let ((?x76 (concat (_ bv0 16) ?x12)))
 (let ((?x11 ((_ extract 31 0) rsi)))
 (let (($x78 (bvslt ?x11 ?x76)))
 (let (($x306 (and $x78 $x43 $x302)))
 (let ((?x15 (concat (_ bv0 48) ?x12)))
 (let ((?x54 (bvashr ?x11 (_ bv31 32))))
 (let ((?x55 (concat ?x54 ?x11)))
 (let ((?x62 (bvsdiv ?x55 ?x15)))
 (let ((?x64 ((_ extract 31 0) ?x62)))
 (let (($x301 (= R ?x64)))
 (let (($x295 (bvsge ?x11 ?x76)))
 (let (($x305 (and $x295 $x43 $x301)))
 (let (($x307 (or $x305 $x306 $x303)))
 (let (($x310 (not $x307)))
 (let (($x300 (and $x43 $x301)))
 (let (($x304 (or $x300 $x303)))
 (let (($x309 (not $x304)))
 (let (($x311 (and $x309 $x310)))
 (let (($x308 (and $x304 $x307)))
 (let (($x312 (or $x308 $x311)))
 (not $x312)))))))))))))))))))))))))))
(check-sat)
